NAME : pr226.tour
COMMENT : Optimum tour for pr226.tsp (Length 80369)
TYPE : TOUR
DIMENSION : 226
TOUR_SECTION
28
27
26
25
24
23
22
21
50
51
52
53
54
55
56
57
58
59
60
61
62
63
64
20
19
18
65
66
70
69
68
67
17
16
15
14
10
9
11
12
13
71
72
8
7
6
5
4
3
2
1
73
74
75
76
77
78
79
80
81
82
83
84
85
86
111
103
105
112
113
104
106
114
115
107
108
116
117
109
118
110
136
135
134
133
131
129
127
128
126
119
120
121
122
123
124
130
132
125
226
225
224
223
222
221
220
219
218
217
216
215
214
213
212
211
210
209
208
207
206
205
204
203
202
201
200
199
198
197
196
195
194
193
192
191
190
189
188
187
186
185
184
183
182
181
180
179
178
177
176
175
174
173
172
171
170
169
168
167
166
165
164
163
162
161
160
159
158
157
156
155
154
153
152
151
147
149
148
150
143
142
141
140
139
145
146
138
137
144
94
102
101
93
92
100
99
91
90
98
97
88
89
96
95
87
41
40
39
38
42
43
47
46
45
44
37
36
35
34
30
29
31
32
33
48
49
-1
EOF
